(set-logic HORN)
(declare-fun inv (Int Int) Bool)
(assert (forall ((y0 Int) (x0 Int)) (=> (and (= x0 (- 10000)) (= y0 0)) (inv x0 y0))))
(assert (forall ((y1 Int) (x1 Int) (y0 Int) (x0 Int))
  (let ((a!1 (and (inv x0 y0)
                  (= x1 (ite (>= y0 x0) (+ x0 1) x0))
                  (= y1 (ite (>= y0 x0) (- x0) (+ y0 2))))))
    (=> a!1 (inv x1 y1)))))
(assert (forall ((y0 Int) (x0 Int))
  (let ((a!1 (and (inv x0 y0) (>= x0 0) (not (>= x0 (- y0 1))))))
    (=> a!1 false))))
(check-sat)
